
Gurobi 10.0.1 (win64) logging started Thu Oct  5 12:31:43 2023

Set parameter LogFile to value "./results//log/BA_07_deadline_heurFalse.log"
Gurobi Optimizer version 10.0.1 build v10.0.1rc0 (win64)

CPU model: AMD Ryzen 7 3700X 8-Core Processor, instruction set [SSE2|AVX|AVX2]
Thread count: 8 physical cores, 16 logical processors, using up to 16 threads

Optimize a model with 151 rows, 124 columns and 506 nonzeros
Model fingerprint: 0x216ab8b9
Model has 1 quadratic constraint
Variable types: 0 continuous, 124 integer (105 binary)
Coefficient statistics:
  Matrix range     [1e+00, 1e+07]
  QMatrix range    [1e+00, 1e+00]
  QLMatrix range   [1e+00, 1e+01]
  Objective range  [1e+00, 1e+00]
  Bounds range     [1e+00, 1e+00]
  RHS range        [1e+00, 3e+07]
Presolve removed 35 rows and 65 columns
Presolve time: 0.00s
Presolved: 123 rows, 65 columns, 481 nonzeros
Variable types: 0 continuous, 65 integer (40 binary)

Root relaxation: objective 0.000000e+00, 21 iterations, 0.00 seconds (0.00 work units)

    Nodes    |    Current Node    |     Objective Bounds      |     Work
 Expl Unexpl |  Obj  Depth IntInf | Incumbent    BestBd   Gap | It/Node Time

     0     0    0.00000    0    1          -    0.00000      -     -    0s
     0     0    0.00000    0    3          -    0.00000      -     -    0s
H    0     0                      50.0000000    0.00000   100%     -    0s
H    0     0                      28.0000000    0.00000   100%     -    0s
H    0     0                      25.0000000    0.00000   100%     -    0s
H    0     0                      23.0000000    0.00000   100%     -    0s
H    0     0                      22.0000000    0.00000   100%     -    0s
     0     0    0.00000    0    1   22.00000    0.00000   100%     -    0s
H    0     0                      21.0000000    0.00000   100%     -    0s
     0     0    0.00000    0    6   21.00000    0.00000   100%     -    0s
     0     0    0.00000    0    5   21.00000    0.00000   100%     -    0s
     0     0    0.00000    0    5   21.00000    0.00000   100%     -    0s
H    0     0                      18.0000000    0.00000   100%     -    0s
     0     0    0.00000    0    1   18.00000    0.00000   100%     -    0s
H    0     0                      17.0000000    0.00000   100%     -    0s
     0     0    0.00000    0    1   17.00000    0.00000   100%     -    0s
     0     2    0.00000    0    1   17.00000    0.00000   100%     -    0s
H   97    72                      14.0000000    0.00000   100%   7.1    0s
H  119    68                      12.0000000    0.00000   100%   7.0    0s
H  573    94                      11.0000000    0.00000   100%   2.2    0s

Cutting planes:
  Learned: 60
  Cover: 7
  Implied bound: 11
  MIR: 3
  Flow cover: 1
  Inf proof: 5
  RLT: 2
  Relax-and-lift: 2

Explored 10221 nodes (5998 simplex iterations) in 0.17 seconds (0.06 work units)
Thread count was 16 (of 16 available processors)

Solution count 10: 11 12 14 ... 28

Optimal solution found (tolerance 1.00e-04)
Best objective 1.100000000000e+01, best bound 1.100000000000e+01, gap 0.0000%
Warning: constraint name "precedence between 0,0 to 0,2 if x_[0,0,0,2,3]=0, i.e. 0,2 before 0,0" has a space
Warning: constraint name "precedence between 0,0 to 0,2 if x_[0,0,0,2,3]=0, i.e. 0,2 before 0,0" has a space
Warning: default constraint names used to write mps file
